c description: Graph 3-Colorability of graph: 
c generator: CNFgen (0.9.0)
c copyright: (C) 2012-2020 Massimo Lauria <massimo.lauria@uniroma1.it>
c url: https://massimolauria.net/cnfgen
c
p cnf 150 650
1 2 3 0
-1 -2 0
-1 -3 0
-2 -3 0
4 5 6 0
-4 -5 0
-4 -6 0
-5 -6 0
7 8 9 0
-7 -8 0
-7 -9 0
-8 -9 0
10 11 12 0
-10 -11 0
-10 -12 0
-11 -12 0
13 14 15 0
-13 -14 0
-13 -15 0
-14 -15 0
16 17 18 0
-16 -17 0
-16 -18 0
-17 -18 0
19 20 21 0
-19 -20 0
-19 -21 0
-20 -21 0
22 23 24 0
-22 -23 0
-22 -24 0
-23 -24 0
25 26 27 0
-25 -26 0
-25 -27 0
-26 -27 0
28 29 30 0
-28 -29 0
-28 -30 0
-29 -30 0
31 32 33 0
-31 -32 0
-31 -33 0
-32 -33 0
34 35 36 0
-34 -35 0
-34 -36 0
-35 -36 0
37 38 39 0
-37 -38 0
-37 -39 0
-38 -39 0
40 41 42 0
-40 -41 0
-40 -42 0
-41 -42 0
43 44 45 0
-43 -44 0
-43 -45 0
-44 -45 0
46 47 48 0
-46 -47 0
-46 -48 0
-47 -48 0
49 50 51 0
-49 -50 0
-49 -51 0
-50 -51 0
52 53 54 0
-52 -53 0
-52 -54 0
-53 -54 0
55 56 57 0
-55 -56 0
-55 -57 0
-56 -57 0
58 59 60 0
-58 -59 0
-58 -60 0
-59 -60 0
61 62 63 0
-61 -62 0
-61 -63 0
-62 -63 0
64 65 66 0
-64 -65 0
-64 -66 0
-65 -66 0
67 68 69 0
-67 -68 0
-67 -69 0
-68 -69 0
70 71 72 0
-70 -71 0
-70 -72 0
-71 -72 0
73 74 75 0
-73 -74 0
-73 -75 0
-74 -75 0
76 77 78 0
-76 -77 0
-76 -78 0
-77 -78 0
79 80 81 0
-79 -80 0
-79 -81 0
-80 -81 0
82 83 84 0
-82 -83 0
-82 -84 0
-83 -84 0
85 86 87 0
-85 -86 0
-85 -87 0
-86 -87 0
88 89 90 0
-88 -89 0
-88 -90 0
-89 -90 0
91 92 93 0
-91 -92 0
-91 -93 0
-92 -93 0
94 95 96 0
-94 -95 0
-94 -96 0
-95 -96 0
97 98 99 0
-97 -98 0
-97 -99 0
-98 -99 0
100 101 102 0
-100 -101 0
-100 -102 0
-101 -102 0
103 104 105 0
-103 -104 0
-103 -105 0
-104 -105 0
106 107 108 0
-106 -107 0
-106 -108 0
-107 -108 0
109 110 111 0
-109 -110 0
-109 -111 0
-110 -111 0
112 113 114 0
-112 -113 0
-112 -114 0
-113 -114 0
115 116 117 0
-115 -116 0
-115 -117 0
-116 -117 0
118 119 120 0
-118 -119 0
-118 -120 0
-119 -120 0
121 122 123 0
-121 -122 0
-121 -123 0
-122 -123 0
124 125 126 0
-124 -125 0
-124 -126 0
-125 -126 0
127 128 129 0
-127 -128 0
-127 -129 0
-128 -129 0
130 131 132 0
-130 -131 0
-130 -132 0
-131 -132 0
133 134 135 0
-133 -134 0
-133 -135 0
-134 -135 0
136 137 138 0
-136 -137 0
-136 -138 0
-137 -138 0
139 140 141 0
-139 -140 0
-139 -141 0
-140 -141 0
142 143 144 0
-142 -143 0
-142 -144 0
-143 -144 0
145 146 147 0
-145 -146 0
-145 -147 0
-146 -147 0
148 149 150 0
-148 -149 0
-148 -150 0
-149 -150 0
-1 -13 0
-2 -14 0
-3 -15 0
-1 -28 0
-2 -29 0
-3 -30 0
-1 -58 0
-2 -59 0
-3 -60 0
-1 -61 0
-2 -62 0
-3 -63 0
-1 -73 0
-2 -74 0
-3 -75 0
-1 -82 0
-2 -83 0
-3 -84 0
-1 -106 0
-2 -107 0
-3 -108 0
-1 -124 0
-2 -125 0
-3 -126 0
-1 -127 0
-2 -128 0
-3 -129 0
-1 -133 0
-2 -134 0
-3 -135 0
-4 -7 0
-5 -8 0
-6 -9 0
-4 -58 0
-5 -59 0
-6 -60 0
-4 -85 0
-5 -86 0
-6 -87 0
-4 -88 0
-5 -89 0
-6 -90 0
-4 -139 0
-5 -140 0
-6 -141 0
-7 -58 0
-8 -59 0
-9 -60 0
-7 -106 0
-8 -107 0
-9 -108 0
-7 -109 0
-8 -110 0
-9 -111 0
-7 -121 0
-8 -122 0
-9 -123 0
-7 -124 0
-8 -125 0
-9 -126 0
-7 -139 0
-8 -140 0
-9 -141 0
-7 -148 0
-8 -149 0
-9 -150 0
-10 -34 0
-11 -35 0
-12 -36 0
-10 -127 0
-11 -128 0
-12 -129 0
-13 -46 0
-14 -47 0
-15 -48 0
-13 -67 0
-14 -68 0
-15 -69 0
-13 -97 0
-14 -98 0
-15 -99 0
-13 -103 0
-14 -104 0
-15 -105 0
-13 -109 0
-14 -110 0
-15 -111 0
-13 -118 0
-14 -119 0
-15 -120 0
-13 -130 0
-14 -131 0
-15 -132 0
-13 -148 0
-14 -149 0
-15 -150 0
-16 -22 0
-17 -23 0
-18 -24 0
-16 -46 0
-17 -47 0
-18 -48 0
-16 -91 0
-17 -92 0
-18 -93 0
-16 -142 0
-17 -143 0
-18 -144 0
-19 -28 0
-20 -29 0
-21 -30 0
-19 -40 0
-20 -41 0
-21 -42 0
-19 -94 0
-20 -95 0
-21 -96 0
-22 -28 0
-23 -29 0
-24 -30 0
-25 -73 0
-26 -74 0
-27 -75 0
-25 -88 0
-26 -89 0
-27 -90 0
-25 -103 0
-26 -104 0
-27 -105 0
-25 -118 0
-26 -119 0
-27 -120 0
-25 -124 0
-26 -125 0
-27 -126 0
-25 -133 0
-26 -134 0
-27 -135 0
-25 -136 0
-26 -137 0
-27 -138 0
-25 -148 0
-26 -149 0
-27 -150 0
-28 -31 0
-29 -32 0
-30 -33 0
-28 -79 0
-29 -80 0
-30 -81 0
-28 -103 0
-29 -104 0
-30 -105 0
-28 -106 0
-29 -107 0
-30 -108 0
-28 -133 0
-29 -134 0
-30 -135 0
-28 -148 0
-29 -149 0
-30 -150 0
-31 -61 0
-32 -62 0
-33 -63 0
-31 -88 0
-32 -89 0
-33 -90 0
-31 -145 0
-32 -146 0
-33 -147 0
-34 -43 0
-35 -44 0
-36 -45 0
-34 -58 0
-35 -59 0
-36 -60 0
-34 -73 0
-35 -74 0
-36 -75 0
-34 -85 0
-35 -86 0
-36 -87 0
-34 -130 0
-35 -131 0
-36 -132 0
-34 -136 0
-35 -137 0
-36 -138 0
-37 -46 0
-38 -47 0
-39 -48 0
-37 -109 0
-38 -110 0
-39 -111 0
-37 -115 0
-38 -116 0
-39 -117 0
-37 -130 0
-38 -131 0
-39 -132 0
-37 -142 0
-38 -143 0
-39 -144 0
-40 -46 0
-41 -47 0
-42 -48 0
-40 -118 0
-41 -119 0
-42 -120 0
-40 -130 0
-41 -131 0
-42 -132 0
-43 -49 0
-44 -50 0
-45 -51 0
-43 -55 0
-44 -56 0
-45 -57 0
-43 -97 0
-44 -98 0
-45 -99 0
-43 -106 0
-44 -107 0
-45 -108 0
-43 -121 0
-44 -122 0
-45 -123 0
-43 -139 0
-44 -140 0
-45 -141 0
-43 -142 0
-44 -143 0
-45 -144 0
-43 -148 0
-44 -149 0
-45 -150 0
-46 -76 0
-47 -77 0
-48 -78 0
-46 -79 0
-47 -80 0
-48 -81 0
-46 -82 0
-47 -83 0
-48 -84 0
-46 -91 0
-47 -92 0
-48 -93 0
-46 -118 0
-47 -119 0
-48 -120 0
-49 -64 0
-50 -65 0
-51 -66 0
-49 -67 0
-50 -68 0
-51 -69 0
-49 -88 0
-50 -89 0
-51 -90 0
-49 -106 0
-50 -107 0
-51 -108 0
-49 -109 0
-50 -110 0
-51 -111 0
-49 -139 0
-50 -140 0
-51 -141 0
-52 -61 0
-53 -62 0
-54 -63 0
-52 -76 0
-53 -77 0
-54 -78 0
-52 -109 0
-53 -110 0
-54 -111 0
-52 -124 0
-53 -125 0
-54 -126 0
-55 -97 0
-56 -98 0
-57 -99 0
-55 -121 0
-56 -122 0
-57 -123 0
-55 -139 0
-56 -140 0
-57 -141 0
-55 -142 0
-56 -143 0
-57 -144 0
-58 -61 0
-59 -62 0
-60 -63 0
-58 -67 0
-59 -68 0
-60 -69 0
-58 -70 0
-59 -71 0
-60 -72 0
-58 -94 0
-59 -95 0
-60 -96 0
-58 -118 0
-59 -119 0
-60 -120 0
-61 -85 0
-62 -86 0
-63 -87 0
-61 -100 0
-62 -101 0
-63 -102 0
-61 -139 0
-62 -140 0
-63 -141 0
-61 -145 0
-62 -146 0
-63 -147 0
-64 -115 0
-65 -116 0
-66 -117 0
-67 -115 0
-68 -116 0
-69 -117 0
-67 -127 0
-68 -128 0
-69 -129 0
-67 -148 0
-68 -149 0
-69 -150 0
-70 -79 0
-71 -80 0
-72 -81 0
-70 -85 0
-71 -86 0
-72 -87 0
-70 -118 0
-71 -119 0
-72 -120 0
-70 -145 0
-71 -146 0
-72 -147 0
-73 -85 0
-74 -86 0
-75 -87 0
-73 -94 0
-74 -95 0
-75 -96 0
-73 -103 0
-74 -104 0
-75 -105 0
-73 -127 0
-74 -128 0
-75 -129 0
-76 -103 0
-77 -104 0
-78 -105 0
-76 -106 0
-77 -107 0
-78 -108 0
-76 -142 0
-77 -143 0
-78 -144 0
-79 -85 0
-80 -86 0
-81 -87 0
-82 -97 0
-83 -98 0
-84 -99 0
-82 -106 0
-83 -107 0
-84 -108 0
-82 -115 0
-83 -116 0
-84 -117 0
-85 -103 0
-86 -104 0
-87 -105 0
-85 -136 0
-86 -137 0
-87 -138 0
-85 -142 0
-86 -143 0
-87 -144 0
-88 -94 0
-89 -95 0
-90 -96 0
-88 -118 0
-89 -119 0
-90 -120 0
-88 -121 0
-89 -122 0
-90 -123 0
-88 -142 0
-89 -143 0
-90 -144 0
-91 -100 0
-92 -101 0
-93 -102 0
-94 -112 0
-95 -113 0
-96 -114 0
-97 -109 0
-98 -110 0
-99 -111 0
-97 -139 0
-98 -140 0
-99 -141 0
-100 -106 0
-101 -107 0
-102 -108 0
-100 -109 0
-101 -110 0
-102 -111 0
-106 -112 0
-107 -113 0
-108 -114 0
-109 -112 0
-110 -113 0
-111 -114 0
-109 -127 0
-110 -128 0
-111 -129 0
-109 -133 0
-110 -134 0
-111 -135 0
-112 -133 0
-113 -134 0
-114 -135 0
-118 -139 0
-119 -140 0
-120 -141 0
-127 -130 0
-128 -131 0
-129 -132 0
-127 -136 0
-128 -137 0
-129 -138 0
-130 -142 0
-131 -143 0
-132 -144 0
-133 -145 0
-134 -146 0
-135 -147 0
-139 -142 0
-140 -143 0
-141 -144 0